c clasp version 2.1.1
c Reading from p69.cnf
c Solving...
s SATISFIABLE

c Models        : 1+    
c Time          : 2.222s (Solving: 1.28s 1st Model: 1.28s Unsat: 0.00s)
c CPU Time      : 2.210s
c Choices       : 24907
c Conflicts     : 4652
c Restarts      : 2      (Average: 2326.00 Last: 798)

c Variables     : 223143 (Eliminated: 69210 Frozen:    0)
c Constraints   : 243348 (Binary: 65.5% Ternary: 33.1% Other:  1.4%)
c Lemmas        : 4652   (Binary:  0.2% Ternary:  0.6% Other: 99.2%)
c   Conflict    : 4652   (Average Length: 221.3) 
c   Loop        : 0      (Average Length: 0.0) 
c   Other       : 0      (Average Length: 0.0)
c   Deleted     : 0     
